
Gurobi 10.0.1 (mac64[arm]) logging started Mon Sep 18 22:43:48 2023

Set parameter LogFile to value "scenario_capacity/CAP_g/results/CAP_g_25/mip_log.txt"
Gurobi Optimizer version 10.0.1 build v10.0.1rc0 (mac64[arm])

CPU model: Apple M1
Thread count: 8 physical cores, 8 logical processors, using up to 8 threads

Optimize a model with 6776 rows, 25172 columns and 99088 nonzeros
Model fingerprint: 0xe2e85a3b
Model has 35912 general constraints
Variable types: 4 continuous, 25168 integer (1632 binary)
Coefficient statistics:
  Matrix range     [6e-02, 3e+05]
  Objective range  [9e-02, 2e+05]
  Bounds range     [1e+00, 2e+07]
  RHS range        [4e+03, 2e+04]
  GenCon rhs range [1e+00, 1e+00]
  GenCon coe range [1e+00, 1e+00]

MIP start from previous solve produced solution with objective 5.74951e+07 (1.42s)
MIP start from previous solve produced solution with objective 5.68132e+07 (1.51s)
MIP start from previous solve produced solution with objective 5.68126e+07 (2.25s)
MIP start from previous solve produced solution with objective 5.68068e+07 (2.89s)
MIP start from previous solve produced solution with objective 5.68068e+07 (3.40s)
MIP start from previous solve produced solution with objective 5.66208e+07 (4.01s)
MIP start from previous solve produced solution with objective 5.66126e+07 (4.22s)
Processing MIP start from previous solve: 364 nodes explored in subMIP, total elapsed time 5s
MIP start from previous solve produced solution with objective 5.66119e+07 (5.65s)
Loaded MIP start from previous solve with objective 5.66119e+07
Processed MIP start in 6.35 seconds (8.79 work units)

Presolve removed 5126 rows and 19252 columns
Presolve time: 0.63s
Presolved: 1650 rows, 5920 columns, 23713 nonzeros
Presolved model has 4 SOS constraint(s)
Variable types: 0 continuous, 5920 integer (34 binary)

Root simplex log...

Iteration    Objective       Primal Inf.    Dual Inf.      Time
       0    2.2407872e+06   2.721645e+05   0.000000e+00      7s
    7390    5.2598853e+07   0.000000e+00   0.000000e+00      7s

Root relaxation: objective 5.259885e+07, 7390 iterations, 0.10 seconds (0.13 work units)

    Nodes    |    Current Node    |     Objective Bounds      |     Work
 Expl Unexpl |  Obj  Depth IntInf | Incumbent    BestBd   Gap | It/Node Time

     0     0 5.2599e+07    0  333 5.6612e+07 5.2599e+07  7.09%     -    7s
     0     0 5.2693e+07    0  650 5.6612e+07 5.2693e+07  6.92%     -    7s
     0     0 5.2732e+07    0  753 5.6612e+07 5.2732e+07  6.85%     -    7s
     0     0 5.2732e+07    0  767 5.6612e+07 5.2732e+07  6.85%     -    7s
     0     0 5.2751e+07    0  771 5.6612e+07 5.2751e+07  6.82%     -    7s
     0     0 5.2751e+07    0  773 5.6612e+07 5.2751e+07  6.82%     -    7s
     0     0 5.2751e+07    0  773 5.6612e+07 5.2751e+07  6.82%     -    7s
     0     0 5.2857e+07    0  946 5.6612e+07 5.2857e+07  6.63%     -    7s
     0     0 5.2904e+07    0  958 5.6612e+07 5.2904e+07  6.55%     -    7s
     0     0 5.2904e+07    0  961 5.6612e+07 5.2904e+07  6.55%     -    7s
     0     0 5.2904e+07    0  962 5.6612e+07 5.2904e+07  6.55%     -    7s
     0     0 5.2904e+07    0  965 5.6612e+07 5.2904e+07  6.55%     -    7s
     0     0 5.2935e+07    0  911 5.6612e+07 5.2935e+07  6.50%     -    7s
     0     0 5.2980e+07    0  881 5.6612e+07 5.2980e+07  6.42%     -    7s
     0     2 5.2980e+07    0  873 5.6612e+07 5.2980e+07  6.42%     -    7s
H   40    40                    5.661184e+07 5.4256e+07  4.16%   587    8s
H   70    71                    5.661174e+07 5.4256e+07  4.16%   476    8s
H   70    71                    5.661173e+07 5.4256e+07  4.16%   476    8s
H   73    71                    5.661173e+07 5.4256e+07  4.16%   468    8s
H  197   131                    5.661173e+07 5.4386e+07  3.93%   353    9s
   512   290 5.6531e+07   15  357 5.6612e+07 5.4522e+07  3.69%   293   10s
H  662   315                    5.661169e+07 5.4522e+07  3.69%   279   10s
H  789   340                    5.661169e+07 5.4588e+07  3.58%   268   10s
H  795   340                    5.661169e+07 5.4588e+07  3.58%   268   10s
H  799   340                    5.661166e+07 5.4588e+07  3.58%   267   10s
* 1177   572              26    5.659235e+07 5.4588e+07  3.54%   228   11s
H 1502   821                    5.659235e+07 5.4588e+07  3.54%   189   11s
  2181   960 5.4588e+07   24  353 5.6592e+07 5.4588e+07  3.54%   176   15s
H 2571   876                    5.654974e+07 5.4588e+07  3.47%   161   16s
H 3176   822                    5.635041e+07 5.4588e+07  3.13%   152   17s
H 4111   853                    5.634984e+07 5.4588e+07  3.13%   148   18s
  5770  1410 5.4588e+07   26  362 5.6350e+07 5.4588e+07  3.13%   144   20s
H 5900  1410                    5.634333e+07 5.4588e+07  3.12%   142   20s
H 6109  1486                    5.634075e+07 5.4588e+07  3.11%   141   20s
H 6163  1372                    5.634075e+07 5.4588e+07  3.11%   140   20s
H 9063  1833                    5.634075e+07 5.4588e+07  3.11%   134   23s
 10482  1983 5.4859e+07   22  377 5.6341e+07 5.4588e+07  3.11%   134   25s
H11233  2059                    5.631858e+07 5.4588e+07  3.07%   134   25s
H12710  2219                    5.631592e+07 5.4588e+07  3.07%   137   28s
H12798  2219                    5.631588e+07 5.4588e+07  3.07%   137   28s
 14244  2367 5.4588e+07   30  183 5.6316e+07 5.4588e+07  3.07%   139   30s
H18725  2500                    5.631588e+07 5.4588e+07  3.07%   142   34s
 19044  2500 5.4835e+07   25  217 5.6316e+07 5.4588e+07  3.07%   142   35s
H22038  2400                    5.631588e+07 5.4588e+07  3.07%   144   38s
 23639  2257 5.4870e+07   25  230 5.6316e+07 5.4631e+07  2.99%   145   40s
 28744  1669 5.5074e+07   29   87 5.6316e+07 5.4873e+07  2.56%   147   45s
H30873  1420                    5.631588e+07 5.4974e+07  2.38%   147   47s
H30944  1420                    5.631588e+07 5.5010e+07  2.32%   147   47s
 32763  1151 infeasible   30      5.6316e+07 5.5130e+07  2.11%   147   50s
H38773  1145                    5.631588e+07 5.5259e+07  1.88%   132   54s
H40296  2003                    5.631588e+07 5.5459e+07  1.52%   128   54s

Explored 42385 nodes (5168242 simplex iterations) in 54.93 seconds (82.63 work units)
Thread count was 8 (of 8 available processors)

Solution count 10: 5.63159e+07 5.63159e+07 5.63159e+07 ... 5.63407e+07

Optimal solution found (tolerance 1.00e-04)
Best objective 5.631587635350e+07, best bound 5.631587569581e+07, gap 0.0000%
